NAME: debruijn_embed_k6_m2_n64
TYPE: TSP
DIMENSION: 64
EDGE_WEIGHT_TYPE: EUC_2D
NODE_COORD_SECTION
1 100.000000 0.000000
2 99.518473 9.801714
3 98.078528 19.509032
4 95.694034 29.028468
5 92.387953 38.268343
6 88.192126 47.139674
7 83.146961 55.557023
8 77.301045 63.439328
9 70.710678 70.710678
10 63.439328 77.301045
11 55.557023 83.146961
12 47.139674 88.192126
13 38.268343 92.387953
14 29.028468 95.694034
15 19.509032 98.078528
16 9.801714 99.518473
17 0.000000 100.000000
18 -9.801714 99.518473
19 -19.509032 98.078528
20 -29.028468 95.694034
21 -38.268343 92.387953
22 -47.139674 88.192126
23 -55.557023 83.146961
24 -63.439328 77.301045
25 -70.710678 70.710678
26 -77.301045 63.439328
27 -83.146961 55.557023
28 -88.192126 47.139674
29 -92.387953 38.268343
30 -95.694034 29.028468
31 -98.078528 19.509032
32 -99.518473 9.801714
33 -100.000000 0.000000
34 -99.518473 -9.801714
35 -98.078528 -19.509032
36 -95.694034 -29.028468
37 -92.387953 -38.268343
38 -88.192126 -47.139674
39 -83.146961 -55.557023
40 -77.301045 -63.439328
41 -70.710678 -70.710678
42 -63.439328 -77.301045
43 -55.557023 -83.146961
44 -47.139674 -88.192126
45 -38.268343 -92.387953
46 -29.028468 -95.694034
47 -19.509032 -98.078528
48 -9.801714 -99.518473
49 -0.000000 -100.000000
50 9.801714 -99.518473
51 19.509032 -98.078528
52 29.028468 -95.694034
53 38.268343 -92.387953
54 47.139674 -88.192126
55 55.557023 -83.146961
56 63.439328 -77.301045
57 70.710678 -70.710678
58 77.301045 -63.439328
59 83.146961 -55.557023
60 88.192126 -47.139674
61 92.387953 -38.268343
62 95.694034 -29.028468
63 98.078528 -19.509032
64 99.518473 -9.801714
EOF
